p cnf 150 240
-116 23 -64 0
-67 -61 -108 0
-75 30 130 0
51 30 -86 0
107 -76 -143 0
-56 55 -12 0
38 22 -69 0
-85 -116 -79 0
89 -64 134 0
22 84 145 0
35 85 -104 0
44 -89 -21 0
45 24 -67 0
-112 -1 -123 0
-77 -133 -132 0
110 18 -107 0
149 50 -15 0
-28 -77 35 0
-125 54 -133 0
30 139 113 0
103 1 138 0
32 -9 123 0
-48 124 -108 0
41 112 -72 0
61 100 -102 0
-119 -1 23 0
-34 -145 -51 0
101 73 18 0
-44 -82 110 0
127 -143 -53 0
-87 -82 -14 0
-58 24 91 0
-22 34 -116 0
30 54 -131 0
-2 28 105 0
-129 -31 19 0
62 -15 -49 0
-93 -44 136 0
-37 -102 3 0
63 -104 68 0
-2 134 27 0
85 66 -10 0
49 -56 28 0
-36 51 17 0
-1 60 146 0
16 63 114 0
-18 -39 3 0
-61 78 93 0
16 -84 -60 0
114 -12 118 0
111 1 -122 0
28 -37 29 0
-81 19 -77 0
-15 101 -27 0
-56 -93 -72 0
-8 -150 75 0
140 -119 -114 0
126 97 -60 0
16 -27 -71 0
-69 -10 -40 0
-132 27 -55 0
34 7 -143 0
50 112 110 0
-19 54 -39 0
-122 -62 44 0
41 -68 63 0
118 16 100 0
-45 86 -104 0
-11 138 -107 0
-78 76 104 0
-133 -145 108 0
-80 -11 -38 0
2 13 -65 0
-18 -54 -65 0
44 -37 -138 0
-27 66 -95 0
-83 -18 -104 0
-16 121 22 0
127 -130 66 0
46 1 -48 0
-106 122 -135 0
82 -118 92 0
-64 117 -50 0
-105 -68 64 0
124 67 -144 0
19 -11 92 0
-108 -41 5 0
124 59 -71 0
24 -30 96 0
36 -60 29 0
-122 -37 63 0
-92 67 76 0
-79 83 101 0
-18 136 102 0
111 144 -19 0
150 94 -20 0
-95 140 121 0
94 -70 64 0
-144 89 -102 0
-25 -98 -71 0
126 113 -14 0
-40 -117 -42 0
-100 -102 -145 0
92 129 36 0
-123 109 -43 0
-140 87 -26 0
-70 -124 -75 0
-104 150 -56 0
119 -101 15 0
-76 37 -35 0
149 143 118 0
77 -113 27 0
94 -52 -92 0
4 148 9 0
80 -126 -16 0
148 -21 -122 0
-65 104 48 0
78 53 -135 0
70 -27 90 0
-81 -89 -114 0
47 -107 28 0
-45 -41 -48 0
-33 53 63 0
128 20 148 0
-30 61 27 0
45 42 109 0
-60 -143 -46 0
15 -6 -82 0
20 -6 135 0
-10 -12 30 0
149 -141 -117 0
-64 11 -143 0
67 113 144 0
-145 -6 138 0
18 28 -92 0
-122 -119 16 0
125 -38 -150 0
-98 59 146 0
-74 -13 125 0
119 32 12 0
99 62 72 0
76 80 1 0
-98 -109 40 0
-7 -15 73 0
-123 -76 -16 0
-1 -51 -149 0
-125 -1 73 0
71 117 63 0
124 -44 139 0
-135 -94 -141 0
x -1 2 -4 -6 -8 9 10 -12 13 -14 -15 -18 19 -20 21 22 -23 25 -26 -31 -32 -39 40 -41 -45 48 49 -51 54 -56 -58 64 -65 -66 -67 -68 -69 70 -72 -74 76 77 78 -79 -81 82 -83 84 -85 -86 -92 -93 95 97 98 -99 102 105 -109 -111 115 117 121 -122 123 124 -127 -128 -130 -131 134 136 140 145 -146 148 -149 0
x 1 -2 -7 -8 -9 -10 11 15 -16 17 -18 -20 21 -23 -26 -28 29 -34 36 -39 -40 -41 -42 43 44 -49 51 -53 -54 58 -61 -62 -67 69 -71 -72 73 -74 -75 -76 -77 -79 80 87 88 91 -92 93 96 100 -105 -106 107 -108 -110 115 -116 -118 -119 -123 124 -130 133 134 -135 139 140 -141 -144 145 -147 149 0
x 1 2 3 5 7 9 11 -12 -13 14 -18 -21 23 -24 -26 -27 29 31 33 -34 35 -36 -38 -39 -40 -41 -43 55 -57 60 62 -64 65 -66 70 71 74 76 -77 79 80 -84 -85 -86 87 -90 91 -96 -101 -104 105 -109 -112 -113 116 120 -121 -122 123 -127 129 -133 136 140 -141 142 -143 144 -145 -146 148 150 0
x -1 -6 8 -9 10 -11 17 18 19 20 -21 22 24 -26 -27 28 29 33 37 41 45 47 49 -50 51 55 -59 60 -63 64 -65 -69 73 76 78 79 82 -83 -87 88 -89 91 -92 93 94 96 97 -101 105 -108 -109 110 -116 -117 118 120 122 -124 -130 131 -133 -134 -136 138 -139 -141 142 -147 148 -150 0
x -1 3 -5 -7 9 17 22 -23 -25 -26 27 -30 -33 34 -35 -41 -42 -43 -44 45 48 -50 52 -54 -55 -64 66 68 -69 71 74 78 80 81 -82 -83 -87 89 -91 92 -98 -99 -101 103 104 -105 108 111 112 116 -118 -121 123 125 -129 -132 135 140 -143 -147 149 150 0
x -4 -5 -9 10 12 -13 14 -19 20 -21 -22 -23 24 -25 29 -31 -33 -36 39 41 42 -43 44 45 46 -48 51 54 -57 59 61 -63 64 66 -67 -70 71 73 -74 76 77 83 -85 86 87 -88 -89 -92 95 -97 -99 -100 101 -105 106 -108 109 113 -115 -116 117 118 123 124 -126 -128 129 -131 -134 -137 139 -146 147 148 0
x 1 2 -4 -5 -6 -7 -8 9 14 16 18 19 -23 27 28 30 -33 36 38 39 48 -53 54 -55 56 -57 -60 -62 63 64 67 70 -71 -73 -74 76 -78 -79 -80 81 -84 85 -87 98 99 -100 -101 -102 104 -105 109 111 -118 -119 -120 122 -123 124 -126 -128 132 133 134 135 137 -140 141 143 -145 -147 148 0
x -2 3 -5 -6 7 -8 9 10 -12 13 -16 -17 -18 20 21 22 23 -28 -29 -30 -32 -35 38 40 -41 45 46 -47 -48 -50 -54 55 -56 -57 -58 63 64 65 -67 68 69 72 -74 -76 77 -80 -81 82 -83 -84 -86 -88 89 -91 92 -95 -96 97 -99 -100 101 103 -106 -107 -108 110 113 114 116 118 119 120 -121 122 134 135 -139 140 -143 -144 -147 0
x 5 6 -7 -8 9 10 14 -15 16 -18 -20 -21 23 24 26 -27 -28 -29 -30 32 37 42 43 -44 45 47 48 50 -53 -55 -60 61 -62 -63 -66 67 70 -71 -73 74 77 78 79 81 -84 -89 -91 93 -94 -96 97 -100 -102 -105 106 -110 112 115 116 -119 -121 -123 124 -126 -127 128 133 -134 135 -137 -138 -139 140 144 -148 -149 0
x 3 -4 5 8 -12 -13 -14 19 -21 -22 -24 26 27 -28 -32 33 35 38 -39 40 42 44 -45 47 51 -55 56 58 -59 61 63 -64 68 71 -73 75 -79 -80 -84 -87 -88 -90 -92 -95 -96 -97 -99 100 102 103 -106 108 -110 112 -115 -121 -122 123 -125 126 -128 -129 -133 135 137 138 140 -141 -142 -143 147 149 0
x 1 4 -5 -6 -7 8 12 13 14 16 -17 -21 -23 -24 -25 27 -29 30 36 -39 -41 46 -47 -53 54 -56 -57 58 60 63 65 -66 70 71 -72 74 77 -78 79 82 83 -84 -87 -90 -91 -93 -97 -98 -100 101 102 107 -109 -119 120 -121 -123 -125 -128 -129 130 131 132 -133 -134 -135 141 -142 -144 146 147 -149 0
x 1 3 9 11 -16 -20 -21 -24 -27 -28 -30 32 -33 41 -44 -46 47 48 51 53 54 -55 -56 57 -58 59 60 61 -62 63 69 -72 75 -79 80 81 -87 88 92 -93 98 -100 -101 102 104 -106 108 110 -111 112 -113 116 -117 -118 -119 -131 -132 -136 138 -139 140 142 145 146 -147 150 0
x 2 4 5 7 9 -10 11 -12 -13 16 -18 19 25 26 27 -28 29 30 -32 -35 36 -38 -39 42 -45 46 47 -49 -51 -52 -54 -55 57 59 60 -64 65 -66 -67 -68 -71 72 -76 85 86 -87 89 90 91 93 -101 104 -105 -106 109 110 112 113 114 115 -118 121 123 126 -127 -129 130 -133 135 137 -138 -139 -141 -145 146 -148 -149 0
x -1 -4 5 -6 7 -11 12 -13 -14 -17 18 -21 -23 -24 -25 -26 -29 -30 36 37 -39 48 -49 54 -55 58 60 61 64 65 -68 70 73 75 -77 -78 -82 -84 -85 -87 -90 -91 92 -93 101 -102 104 -105 -106 108 -109 110 -112 113 -114 -116 122 -124 127 -130 -131 132 -136 -137 138 -139 140 -141 145 146 -148 149 0
x -3 7 9 10 11 12 13 14 15 18 20 -21 -26 -27 33 34 -37 39 -40 -41 42 45 46 47 48 -52 54 55 -60 -62 -63 65 -70 -71 -72 -73 74 -77 -82 83 84 85 87 88 -89 -90 91 -92 -93 -95 96 -98 -100 101 -103 -107 -108 109 111 112 113 118 -119 120 -121 124 -125 -126 127 129 -130 131 -132 -133 -134 -137 -138 143 145 -148 -149 0
x 3 5 -6 7 -9 10 -13 14 16 17 -19 -20 -22 -24 27 -28 29 -30 31 -32 33 -35 36 38 -39 47 48 49 -50 52 -54 55 -57 -58 -63 64 65 66 -68 -69 74 81 -82 -85 -86 87 92 -93 94 97 -98 100 -106 112 114 120 -121 122 127 128 129 -132 135 139 -140 143 -145 -146 -149 0
x -2 3 4 -10 -11 13 -14 -17 19 21 -22 -23 -24 27 29 -32 -38 -45 48 -50 -51 56 -58 63 67 -68 -69 -70 -73 76 79 -82 -84 -87 -90 91 -92 93 -96 -100 -101 -102 105 -107 108 111 -114 -117 120 -123 125 -129 -130 -133 137 141 143 -144 -145 146 -147 149 -150 0
x -1 -6 -8 -9 -12 -16 -19 20 -21 -22 23 24 -25 29 34 -35 -36 38 41 42 -46 -49 50 -51 52 55 57 -59 -60 64 67 70 71 72 74 76 80 -83 -88 89 -90 -91 -93 -94 95 96 -98 -104 -105 -108 -109 111 -113 -115 116 117 -123 -124 -127 -128 130 131 -133 135 -136 138 139 -144 145 147 -149 0
x 2 3 -5 6 -9 -10 12 -13 -15 -16 17 19 20 21 -23 25 -26 -30 35 -37 -40 41 42 -45 47 48 49 50 51 52 53 -58 59 -60 -62 -63 -64 -67 69 72 73 74 75 77 80 -81 -82 83 85 86 -87 -90 -91 -94 -96 -97 98 99 -100 -101 103 105 108 109 -110 113 115 116 -117 -118 119 -121 122 -123 124 126 128 -129 133 -135 137 138 -139 140 144 150 0
x 1 3 -5 6 7 8 9 -10 -11 14 -17 19 -20 -22 -24 26 -28 -29 32 35 -36 -38 -39 45 -49 -56 57 58 -64 65 66 -68 -70 -73 -76 -77 -78 79 -81 83 -84 85 86 -87 88 90 91 92 95 -96 -97 100 101 -102 103 104 106 -109 -112 113 114 117 118 -119 -120 124 126 128 -132 133 134 135 137 -138 140 141 -142 143 -145 146 0
x 2 3 4 -5 -8 -9 11 -13 14 16 19 22 -24 25 -28 30 31 -37 -38 39 -42 45 -47 48 -49 50 51 -53 -54 55 -56 -57 -61 -65 -67 72 -73 74 -75 -76 -77 -78 -79 81 -83 -87 -88 90 91 92 94 97 98 -99 100 -101 103 104 105 106 -108 109 112 -114 -116 -117 -118 -119 -122 -124 125 -127 129 -132 133 -135 136 140 -143 -144 -145 148 149 -150 0
x -10 11 12 -13 14 -16 -22 23 -25 -26 29 -31 -32 34 -37 39 -41 42 44 -45 -47 -48 49 -55 -57 60 -61 -62 64 -70 -73 -75 76 77 80 -84 86 -88 -92 95 96 97 -101 -102 105 -106 -107 -110 112 -113 -114 -118 120 -121 122 125 -126 -127 129 130 131 133 -137 139 -141 -144 145 149 0
x -1 4 10 11 13 14 -15 -19 22 25 26 -27 -28 -31 33 35 -39 -41 -45 -47 49 50 51 -55 -56 -57 60 62 63 70 71 -72 -77 82 83 84 -85 -86 90 93 94 97 -99 100 -103 -107 109 -110 -111 -113 115 -116 -117 118 121 -123 -125 126 127 128 130 131 -132 134 135 137 -141 143 144 145 -146 -147 150 0
x 2 3 -4 5 -6 7 -9 13 14 15 -17 18 -20 21 22 23 26 -27 29 32 36 -40 41 45 -50 51 -54 -55 -57 58 61 -62 -63 66 68 -70 73 74 76 80 81 -83 -84 88 90 -91 92 93 94 99 -100 101 106 -107 109 110 112 114 -118 121 -125 -129 -130 134 -135 -136 -137 -141 -142 143 -144 149 150 0
x 1 2 3 5 9 -11 13 16 -17 19 -23 -24 -25 -27 -30 -31 34 35 -36 37 -38 -39 -41 -43 44 46 48 50 -53 -55 57 -59 -64 65 -66 68 69 -71 -72 77 -79 -80 81 82 -83 -84 85 -87 -89 -92 -94 95 102 108 -112 -115 119 -120 122 -124 125 126 -127 -129 131 -132 -133 134 -137 -138 -140 -141 142 144 -145 0
x 3 4 -5 -8 -11 12 13 -14 16 -17 18 22 -27 -28 -31 32 36 37 -38 42 -43 -45 47 -51 -52 53 54 -56 -57 -64 65 -66 -71 74 -75 78 80 -85 -88 89 -91 92 -94 95 96 99 -100 -102 103 104 -105 -107 110 -111 113 114 118 119 120 125 128 130 -133 -135 137 -138 -142 143 -144 -145 -146 -149 0
x -2 3 4 -5 -8 -9 -10 11 -12 -13 -14 -17 18 -20 -21 -25 -26 -27 -31 33 -35 -40 42 -44 -46 47 49 52 -53 -54 56 -57 -58 -59 -60 -62 63 -65 -66 -67 68 -70 -72 -76 -77 79 -81 -83 85 87 -88 92 -93 -95 -96 97 99 -100 102 -103 107 113 114 -115 121 -124 -125 -127 -128 130 131 -133 134 139 141 142 -143 144 145 -146 -147 148 0
x 1 -2 -3 4 5 7 -10 -12 14 15 -18 -19 -20 22 -23 -25 -28 -30 -32 -34 -37 38 -39 -40 41 -42 45 47 -52 -61 -62 64 65 -76 78 -83 84 85 86 -88 89 -90 92 97 -98 -99 102 -109 112 -113 115 118 119 120 -122 -125 -126 131 -132 -133 135 136 -137 138 -143 -144 -147 -150 0
x -3 -5 6 -7 13 19 -20 22 23 28 -29 30 31 34 36 37 38 39 -42 47 48 49 -54 -57 -60 63 -66 67 70 75 76 77 78 82 83 -85 -86 -93 -94 95 -96 -97 -98 -99 -100 102 103 105 -106 107 -109 -110 116 -117 118 -119 120 -121 126 127 -128 -130 -132 141 -143 146 147 149 150 0
x -2 -3 4 -7 -9 10 -11 -15 19 20 -21 -24 -27 29 31 -36 37 41 -43 -47 -48 49 50 -53 -59 63 -65 -66 -67 -69 70 -73 74 -75 -76 -79 -80 -81 -82 83 84 86 87 89 -90 -92 96 97 -101 102 104 -105 -107 109 111 -113 -114 -117 118 120 121 125 -127 -129 131 132 -133 134 -137 -140 -142 144 145 -146 147 150 0
x 1 -2 3 4 -6 -8 -12 13 -16 17 -18 -19 -21 24 25 -26 -28 -29 -31 32 37 -38 39 42 43 -49 51 54 -57 60 -66 -68 -69 71 72 -73 75 76 -77 -80 -82 83 -85 -86 89 91 -92 -95 96 97 98 100 -105 -108 109 -110 -111 -112 -113 -117 119 -120 -121 -124 -125 126 127 130 131 -133 -135 136 139 140 142 -144 145 146 -149 -150 0
x 1 -4 5 7 10 -12 -14 -17 -19 -20 23 28 -29 -30 -31 35 36 -38 39 -40 -41 42 43 -45 -46 -48 -49 50 -52 53 -57 58 -59 61 62 -64 67 69 -71 -74 76 -79 81 -83 -84 -86 87 90 -92 -93 94 95 -96 97 99 101 -104 -105 106 -109 -110 111 113 -114 -118 -120 121 122 -124 125 -126 -127 130 -131 132 -133 -136 138 139 -140 142 143 146 147 150 0
x -5 -6 -9 -12 13 -14 -20 -22 23 -26 28 -30 -31 -32 -34 -37 38 -39 -40 -42 -43 -47 -48 49 52 53 54 -55 -56 58 -60 -63 -64 65 68 -69 70 72 74 75 76 78 -79 81 -84 -85 -86 -87 88 89 91 94 95 99 100 101 -102 103 -104 105 106 -110 -112 -113 119 -120 121 -125 129 131 -132 -133 -136 -137 140 -141 142 143 144 -145 147 148 150 0
x 1 2 -3 -4 -8 10 -12 13 -15 17 19 -20 21 -25 26 -27 -28 -29 -31 -32 -33 37 -38 -40 41 -42 -44 -47 -48 -51 53 -56 57 -59 -60 63 -65 -66 68 -70 -72 -79 -83 -85 -87 -88 -90 -91 93 94 95 -96 99 104 105 -108 110 -111 112 115 -116 -118 119 120 -121 122 -124 125 -126 127 130 131 -133 -137 -138 139 -140 -142 -143 145 146 148 149 150 0
x -1 3 4 -6 -8 10 11 -13 -14 16 22 24 25 27 -28 34 -38 39 -49 50 53 57 -58 60 -61 68 69 70 -72 -73 -74 -77 -78 79 81 86 -90 91 94 -97 99 101 102 -103 107 108 110 -113 115 118 122 123 125 126 -128 -132 134 -137 138 -139 -142 -144 145 148 -149 0
x -1 2 -3 4 5 6 9 12 -13 -15 17 20 21 -24 -25 26 -27 28 30 -31 -33 -35 37 -38 39 -43 -44 -45 -49 -50 -51 -57 58 -59 -63 -65 -66 67 68 -70 71 73 -74 75 -77 -80 -82 85 -88 89 -92 -96 -99 100 103 -105 -112 -114 -115 116 -119 -122 125 126 127 131 -132 -133 -134 -136 -137 -140 141 -142 144 -146 -147 150 0
x -2 -3 -4 -5 7 12 14 -16 17 18 -19 20 21 26 -28 -29 -30 33 -35 37 39 -43 -46 49 -51 -55 56 58 -59 63 69 -72 74 79 -82 84 -85 92 96 -99 100 101 103 106 112 -113 115 -120 122 -123 127 130 -133 134 135 -136 137 -139 140 -141 143 -144 145 -146 148 0
x -1 -3 -4 5 -7 11 12 -13 14 -18 -19 -21 -22 23 -24 -25 27 30 -31 -35 40 41 42 45 48 50 -55 63 -64 65 -67 -68 -70 -71 -74 75 -76 -77 -78 -79 -80 -81 -82 86 -87 88 -93 -98 100 101 -103 104 106 -107 108 112 116 120 -122 -123 127 -128 129 -130 -131 -132 -133 -134 -137 -138 -139 -141 -143 -144 -148 0
x 1 -2 -5 -8 -9 -11 12 14 15 16 -17 21 -23 -24 28 -29 -30 33 39 -40 -43 44 45 47 49 -51 -53 54 56 -57 -59 -60 61 -63 67 -68 -69 72 -78 -81 84 85 87 88 89 -90 -91 -92 -93 96 -97 -100 104 105 106 -110 -111 114 115 116 -118 119 -120 121 122 124 127 128 129 -130 -133 134 -137 -142 -143 -145 -146 0
x 5 6 7 8 -10 14 16 17 -18 -19 20 21 -22 -24 -25 -31 32 -33 -37 39 40 -42 44 -46 -48 51 52 -53 -56 58 -59 63 68 -71 74 76 78 80 84 -85 -86 89 90 91 -92 -93 95 101 -102 -104 110 111 113 -115 -117 -118 120 122 125 133 134 -137 -138 139 -141 143 -146 150 0
x -1 -2 4 5 -6 -8 -9 -11 -15 17 18 23 -25 -26 -28 -29 -31 34 -35 36 -38 44 45 -46 -48 49 -51 52 -53 -59 60 61 -64 65 -69 -70 -78 79 -80 -81 -83 -86 87 -89 90 -91 92 93 -97 -98 -99 100 101 -102 103 -105 106 -108 109 -110 111 112 113 116 -117 118 119 123 124 126 -127 128 129 -130 132 134 -135 -136 -137 138 139 140 -142 -145 -148 150 0
x -2 3 4 -5 -6 -7 -8 9 -10 11 -15 17 -19 -20 -21 24 -26 29 -31 -32 38 40 41 43 -45 48 51 -54 57 -58 -62 63 -64 -66 67 70 -73 75 76 77 -79 80 -83 88 -90 -92 -93 -95 -98 -100 103 -105 -106 107 -108 -109 111 -114 -117 -123 -126 127 -129 -135 -137 -139 141 142 -143 147 148 -150 0
x -1 2 4 7 11 -18 -20 -26 -28 -29 30 31 -33 34 -35 -36 38 -39 41 -48 50 52 54 57 58 -59 -60 -61 64 65 -71 -72 -73 -74 76 78 79 -80 -84 85 88 -89 -90 -91 94 97 -100 102 -103 -107 110 -111 -115 117 119 -122 -123 -124 -125 128 130 136 138 139 144 145 147 148 -149 150 0
x -2 5 -7 -8 12 13 14 -16 17 20 21 22 -25 -26 -28 30 32 -35 -36 -37 -38 41 43 44 -45 46 -49 52 -53 -60 -62 -64 67 -68 72 75 77 -78 79 80 -81 82 86 90 93 95 98 -101 102 -103 -104 105 106 -110 -111 112 -113 115 119 -120 121 -123 124 126 -127 -129 -130 132 -133 -135 137 139 141 -142 -143 -144 -145 -148 149 0
x 2 3 6 8 10 -12 -13 -14 -15 -17 18 19 20 22 23 -25 26 28 -29 -31 35 36 -39 41 -42 44 48 -49 51 -52 -53 55 -63 -68 69 70 -72 -75 77 -78 79 -80 84 87 -88 -91 -92 -94 95 -97 -98 -99 -100 101 -103 -106 110 -115 117 -119 121 -122 -123 125 -128 134 -136 -138 140 143 144 145 147 148 150 0
x 2 9 11 12 13 14 17 -19 21 -23 26 30 -33 -34 38 39 40 41 -42 45 46 -48 49 50 -52 -56 -58 60 -64 66 -67 -71 -73 76 77 79 -82 -87 -88 -89 90 -91 -93 -96 -98 99 100 -101 -103 -107 110 112 -113 114 -115 -116 -117 -119 121 123 -124 -127 -128 -132 134 -136 137 -139 142 -143 -144 0
x -1 -2 3 12 13 14 -15 18 21 24 28 -33 35 36 37 -38 -40 42 -45 48 54 -55 -59 62 -63 67 71 72 -73 74 76 -77 79 -81 82 -84 86 -91 93 95 96 98 -101 102 -103 104 -109 -114 118 -119 121 122 -125 127 129 -132 142 147 149 0
x 1 4 -6 8 13 -14 18 21 23 24 26 -29 31 32 35 36 -39 40 -41 43 -44 45 -46 -47 50 -51 -52 -56 57 -66 69 72 77 -80 81 83 -88 91 92 93 -94 -95 -96 -99 -100 103 104 108 -109 -110 -112 113 114 116 117 127 132 -133 -135 137 139 140 -141 142 146 -147 -148 150 0
x -2 -4 -5 6 -7 10 -11 -16 -18 -19 24 -25 -26 27 -29 -30 31 -35 36 -38 44 45 46 47 49 50 53 -57 58 -59 -63 66 -68 70 -73 -76 -79 80 81 -82 -84 87 -90 -91 -93 -95 -96 -99 100 101 102 103 106 -107 -110 -111 113 114 115 117 118 122 -125 -127 -128 -129 -134 -138 141 146 147 149 0
x -1 -4 7 8 -11 12 13 15 -16 18 21 22 -24 25 -26 27 28 31 -32 33 35 36 38 41 -42 43 47 -48 49 51 52 -53 55 57 59 60 -63 64 -65 67 69 70 -71 73 -74 -75 -76 -78 83 84 85 88 -89 91 93 -94 -95 96 97 98 99 101 -103 -106 -110 -111 -112 -113 -115 116 117 128 129 130 -132 134 135 -136 -141 142 -143 -144 -147 150 0
x -2 -5 7 -10 -14 16 17 -18 -19 -21 22 -23 24 -25 26 27 30 31 -34 -36 37 -38 -40 41 -42 43 44 -45 -46 -49 -50 54 -57 -61 63 -64 65 -66 67 70 -71 -72 74 -75 -76 -77 81 82 -83 89 -90 -98 -101 -104 -107 -109 112 114 115 117 -118 -120 123 -124 -125 -128 -129 -132 -133 -134 -137 140 141 143 144 146 147 148 0
x -2 4 -8 -11 12 -13 -17 19 20 -21 23 -30 -31 32 -34 35 -36 -38 -39 -40 42 43 -44 45 49 50 -52 -55 57 58 -59 61 63 -64 -65 -67 69 -70 -71 75 -77 -78 79 -80 83 84 -88 -96 -97 98 -100 102 -106 107 110 -115 118 119 120 -121 122 -125 127 -129 -134 -135 137 139 141 142 -143 144 -145 146 147 148 -149 150 0
x -2 5 8 -10 -11 13 17 19 -20 -22 26 27 37 -39 40 -41 -42 -44 -50 52 -54 55 56 -57 -59 -60 63 -64 65 -66 -67 68 69 -73 75 76 78 -80 -83 -85 86 -89 -91 -93 -94 97 101 -102 -105 -106 -107 -109 -110 111 -114 117 124 126 -127 -128 -129 131 134 -135 141 142 143 148 -150 0
x 3 5 -6 9 10 11 12 14 -15 -17 21 -22 23 27 -28 -29 -32 34 -35 -36 38 40 43 -44 46 48 -49 50 51 55 -56 -60 62 63 -64 65 -66 -67 -68 69 71 76 77 -78 -85 -87 -88 -91 93 -95 97 -98 -99 -102 -103 104 -105 108 111 -112 113 -119 121 122 -124 125 126 127 -128 -130 -132 -133 136 -140 -147 148 149 150 0
x 1 4 5 -6 7 -12 13 14 -15 -18 19 -20 21 24 25 -26 -27 32 33 34 -35 36 -37 38 41 -45 46 -48 -49 50 -52 53 -56 -57 -58 61 64 -65 -66 -70 -72 73 75 76 -77 -78 81 -84 85 -86 -88 89 92 -93 94 -96 -98 -100 -103 106 -109 110 113 115 119 -120 -121 -123 -125 -126 -127 128 129 -131 -133 -134 -135 138 139 -144 145 -146 147 -148 149 -150 0
x -2 -3 -5 6 -7 -9 -10 12 -14 -15 -16 -18 -21 -24 25 28 31 -32 -35 -43 45 -47 -49 -50 -51 -53 57 -58 61 -62 63 -64 65 -66 69 -70 71 -73 76 77 -79 82 -85 -86 -87 89 -93 94 95 98 -100 -102 -103 -105 -111 -112 116 117 -118 -121 -122 126 -127 -128 130 131 -133 135 -138 139 141 -143 144 -146 -147 -148 149 -150 0
x -1 -2 -4 5 -6 7 -9 -10 11 12 13 -19 20 -21 -22 23 24 -25 -32 -33 35 -36 -38 -42 43 -45 -46 -47 49 -50 51 -52 53 -59 60 -62 64 65 -67 68 -69 71 73 74 -76 -77 -78 79 80 81 -85 -86 -90 -91 -92 -94 95 96 98 100 -101 -102 105 -107 108 -109 110 111 -113 114 -118 -120 121 -122 123 -124 -125 126 -127 -130 -133 134 136 -139 -140 -142 148 -149 0
x -3 6 -9 10 12 16 17 18 -19 21 22 -27 -28 -30 31 -33 35 -38 -39 -40 -42 43 45 46 50 51 -52 53 -54 -55 -56 -57 -60 63 65 66 -67 68 -69 -70 -73 74 -75 76 -82 -83 87 89 -90 -91 92 -93 -94 96 -102 103 -104 -111 115 116 118 -119 -120 122 -123 -124 127 129 -131 132 -133 -135 -136 -138 139 140 -141 142 147 -148 150 0
x -4 6 7 9 12 13 -14 15 -19 28 32 33 -34 -35 36 43 -44 -47 -48 49 50 52 53 54 57 -58 -62 63 68 69 71 -73 77 -80 -81 -82 84 85 -88 -89 91 92 93 -95 97 98 -99 103 -105 107 109 110 -112 -114 -116 -125 130 132 133 134 135 -137 -138 141 142 147 0
x -1 2 7 8 9 10 -11 13 -17 18 -19 -22 24 28 29 31 34 -35 36 -37 -39 43 -44 47 48 53 54 57 58 -59 60 -61 -63 -67 68 -72 -73 -74 -76 -77 79 83 84 85 -86 -87 90 -91 92 -100 102 104 -106 -112 115 -116 -117 118 119 120 123 124 -126 129 -130 -131 -133 134 135 -145 -147 -148 -149 150 0
x 2 -3 4 5 -7 -8 12 -13 15 16 -17 -20 -21 -23 -26 -27 -28 31 32 -38 39 -40 -41 -42 44 -45 46 -47 -48 -52 -53 -54 -55 58 -59 -60 61 -62 63 -64 -65 -68 -72 -73 -74 -75 -77 -83 -84 88 -90 91 92 -95 -97 98 101 -111 113 -114 115 116 119 -121 -122 124 126 127 -128 -130 -131 -132 -134 -137 138 141 -142 144 -145 148 0
x 1 2 -4 -5 -6 9 13 -14 -17 -19 20 22 23 -27 -29 30 32 33 34 -35 36 -42 44 -46 47 48 49 -52 55 -56 -57 -60 -61 -62 63 67 -69 75 -76 77 -80 81 82 83 -85 86 -87 -92 -95 -96 97 99 -102 104 -105 106 110 -114 115 -116 -117 120 123 125 128 130 131 132 -134 -136 -138 140 -145 -146 149 0
x 1 2 3 6 -8 -9 11 -17 22 -23 -25 28 30 35 37 38 -41 -42 -43 -45 46 -47 50 -54 -58 -63 -64 -65 66 70 73 76 80 81 -83 -86 87 89 90 91 -93 -95 96 104 105 -106 108 -109 -112 113 114 115 118 120 -121 -122 124 127 128 -129 131 132 135 137 -138 -139 142 -144 145 -147 -149 -150 0
x 4 -5 7 -9 10 -12 13 -14 15 17 -18 -19 -21 -22 26 27 28 29 30 -31 -33 35 -36 -37 -38 43 -46 49 -51 52 -54 -57 58 -64 -65 -66 -67 69 70 -72 -74 -75 78 79 -82 -83 -84 86 -87 -88 -89 -92 -93 -94 -95 -96 -97 -98 -99 101 -102 106 108 111 112 -114 -115 116 118 121 122 125 -126 129 130 -132 -133 -134 138 140 142 143 -144 145 -146 -147 -149 0
x 1 3 4 -5 -9 12 13 -15 20 -27 30 33 34 -35 36 38 -39 41 -44 -45 -46 51 54 -55 -61 62 63 -65 67 68 73 74 77 78 -80 -81 -82 83 -84 87 88 -91 92 95 97 -101 102 105 108 -110 113 -116 -121 -123 124 -126 -129 130 132 135 138 140 -142 143 144 145 -146 -148 0
x 1 6 -7 -11 14 18 21 -22 -23 24 26 28 30 32 34 39 41 -43 -44 46 48 52 55 57 59 -61 62 -64 -65 69 -70 76 77 -79 80 -82 -84 -85 -86 87 -91 92 93 94 -95 -96 -97 101 -103 -104 106 108 -109 -119 -121 -123 -127 -129 130 -133 -134 -135 -139 141 -143 -144 147 149 0
x -2 -4 5 6 7 9 -10 -11 -12 14 -15 -16 18 20 21 23 26 -29 30 -32 -33 -34 35 -36 37 -38 39 -42 46 50 -52 54 56 57 61 62 63 -64 67 69 -70 73 74 -75 78 -79 80 81 -83 -84 87 -89 -90 -91 104 -109 -112 -113 -114 115 -121 -122 -124 125 126 128 -129 133 135 136 140 -141 142 -145 0
x -1 -3 6 7 -11 -14 -15 18 20 22 23 24 -26 33 36 37 -38 43 -44 45 -49 51 -54 60 63 65 67 -68 72 73 -77 -81 -82 -83 84 -86 89 91 92 -93 96 -97 -98 101 -103 -105 -106 107 -109 -110 111 112 -115 116 122 123 125 -128 -129 130 -135 136 137 138 -141 -142 143 144 -145 146 148 -150 0
x 1 2 -3 4 9 10 -11 -12 13 -17 -18 -19 20 -21 -23 27 28 -29 33 35 36 -37 42 43 44 -47 -50 52 -53 -55 -56 -58 65 -66 67 -68 69 -70 71 -72 74 -75 76 -79 -81 84 85 -89 -91 -92 93 94 -95 -96 99 -108 110 -114 115 116 -117 118 -119 -120 -126 128 -131 133 -135 136 137 138 141 142 146 148 0
x -2 3 -4 -8 12 13 14 -16 -17 18 23 25 26 -27 28 30 32 37 40 -42 43 -44 45 -47 -48 50 52 55 57 -58 -59 63 -68 70 73 -75 -77 84 -85 -86 90 93 -94 -99 100 -101 -109 -110 -112 -116 -117 -119 -121 -124 125 128 -129 -132 -134 136 -137 138 -140 143 147 149 150 0
x 1 -2 -3 4 -5 -9 10 -11 12 -13 16 -17 19 -24 -27 -28 -33 36 -37 39 -40 -42 43 -46 47 -49 -50 51 52 -54 -60 -62 -64 66 74 -75 -76 80 -81 -86 -89 -90 91 -94 95 -99 -100 107 109 111 -112 114 117 -121 122 -124 -125 126 128 -131 132 -133 -135 137 138 143 145 -146 147 -148 0
x 1 2 -3 -5 -6 7 -8 -10 -11 13 -14 16 18 19 20 -21 -22 24 -25 -29 -30 31 32 34 36 38 -40 42 43 45 -46 47 -48 -49 -52 -53 54 -59 -61 -64 -65 66 -68 69 70 -71 -73 -74 75 -76 77 -82 84 -85 88 93 -94 98 99 -100 102 103 106 107 -109 110 -112 114 119 122 -123 124 125 126 -127 128 130 132 133 137 143 145 147 -148 -150 0
x 1 -3 -6 7 8 -9 -12 -14 17 18 -20 -22 -23 -24 -27 -30 32 -34 -35 36 -39 40 -41 42 -45 48 49 -51 -54 -56 57 59 -60 -61 -63 66 68 -71 -72 74 76 81 82 84 -90 91 92 93 -94 96 97 100 -101 102 103 -104 -108 -109 -112 114 115 -117 -119 -123 124 127 -132 133 -134 136 -137 -138 139 141 142 -146 148 150 0
x 2 -4 5 7 9 -10 12 13 15 -16 27 29 -31 34 -36 -37 39 40 41 42 44 45 -49 -51 -54 55 56 -59 -67 68 73 76 77 78 81 -82 84 -85 86 -87 90 -91 -93 95 -97 -99 101 -103 -104 105 -108 -109 -111 -113 117 -118 122 124 126 -127 -134 -135 -137 140 -141 142 -146 -148 0
x 1 -3 -8 -9 11 12 -14 17 22 24 26 -28 -30 -31 32 -33 -41 -42 44 50 -52 -54 55 -56 60 64 69 70 71 -74 75 78 79 80 -81 -86 -87 -89 91 93 96 -102 103 105 -106 -108 111 113 114 -119 -120 -121 123 -124 126 -127 -128 -130 131 -134 -136 -137 -138 -142 143 144 -145 -146 147 -148 149 0
x -2 3 -4 -9 -11 15 -18 19 -20 -25 -26 27 -28 -29 31 -33 34 36 -43 -44 -45 51 54 -55 -57 -58 -60 61 -62 -63 -65 -67 68 -70 71 72 -74 -76 -77 -78 81 83 -86 -90 92 -93 -94 98 100 102 -104 105 -106 -107 109 -111 112 -113 -114 -115 -118 -119 122 125 126 -132 -135 -136 -138 139 -140 -141 -143 -144 -146 -147 148 -149 150 0
x 1 2 -3 7 -9 -10 -11 -12 13 16 18 -22 24 26 29 31 -32 34 -35 36 37 -38 40 -41 46 -47 50 -51 56 -58 59 -61 -62 -63 -67 68 69 70 -72 75 84 87 -90 -91 -92 -93 94 -96 97 -98 -100 102 103 104 -107 -108 -110 111 -112 116 -118 -122 127 130 131 132 -134 -136 -138 140 -146 -149 -150 0
x -3 -4 -5 6 8 9 -12 13 14 17 -23 -24 25 27 29 -33 34 35 -36 37 38 -39 41 -43 46 -48 49 50 53 59 -61 -64 67 -68 -70 -71 -72 73 -75 77 -79 -80 -84 -91 -93 94 96 100 -105 106 109 111 -112 -113 120 122 -123 124 -127 128 -129 -130 -132 -134 135 -138 -139 145 -146 -148 -150 0
x -1 -7 8 -9 10 -11 12 13 17 -19 -23 -24 -25 -28 -29 -30 -31 32 -34 36 37 -43 -44 45 -47 48 49 50 -51 52 -53 56 63 65 -66 -67 -70 71 73 -74 -76 -79 80 83 84 86 87 90 93 96 -103 104 -108 -111 115 116 117 120 121 -125 126 127 128 -131 -137 -138 140 141 -143 -144 145 146 147 148 -149 0
x 1 6 7 -8 -9 10 -11 13 -14 16 -17 18 -22 -25 -29 -31 33 34 35 37 38 -41 42 -43 45 46 47 -52 53 54 -55 57 -59 -63 -64 67 68 71 73 -74 76 -77 -78 80 -81 -82 -86 -87 -89 -90 -92 94 96 97 99 -100 -101 102 103 -104 105 -109 -110 -111 112 115 -116 118 -119 120 -121 -122 123 -127 -128 -130 132 -133 -134 -135 -136 -137 140 142 -144 146 -148 149 -150 0
x -2 -3 -5 6 11 -14 15 -18 -19 -20 23 -28 -29 31 32 33 -35 -38 39 -42 44 -48 53 -55 -56 57 -58 61 -63 64 66 67 -70 -71 -74 -78 -79 -80 -82 84 86 -88 89 92 -94 -95 99 -100 101 102 -103 -105 108 -110 112 -113 -114 -117 -121 -124 126 129 130 131 -132 -135 -136 -138 -139 140 143 145 149 150 0
x -2 6 -9 10 11 12 14 16 -17 -24 -26 -28 29 -32 33 35 38 -42 44 45 48 -49 52 54 -55 56 -57 -60 -62 64 66 67 70 72 73 74 78 80 89 -91 -94 -96 -97 99 100 101 104 -105 106 109 111 -114 116 -117 119 125 -126 127 128 129 -130 -137 -139 -140 -142 -146 147 -148 -149 0
x 1 -2 3 4 -6 -7 8 9 -10 11 -12 16 17 22 25 -30 31 -34 -35 -37 -38 -40 42 43 44 49 50 51 52 -56 -57 60 -62 -64 -66 -68 69 -75 -77 78 80 82 -85 -86 -87 -89 91 -92 -93 -94 95 96 -98 101 -104 -108 -109 -111 -112 -113 -115 117 -118 -119 120 121 -123 -124 126 128 -129 130 131 134 -135 136 141 -143 145 148 150 0
x -2 -3 -4 -9 -10 16 -17 -20 21 22 -23 -24 -25 -26 33 35 37 -38 41 -43 -44 46 47 49 50 -52 -53 -54 60 62 -65 -68 -69 70 -71 72 -74 75 76 77 -78 -84 -87 88 89 -90 92 -93 94 95 99 100 103 105 -106 -107 -110 112 -115 117 118 -120 -123 126 -130 -133 -136 -146 -147 -150 0
x -2 7 -8 -9 -14 -16 19 -20 22 24 -27 -30 31 33 -35 36 37 -39 40 -41 -42 43 -44 46 -47 49 -52 -54 -55 -59 -64 -65 -67 68 -70 71 72 -74 76 -77 -78 82 -83 84 85 -86 -90 92 93 -95 -97 -98 100 -101 108 110 -111 -112 -113 115 -116 121 123 -130 -131 -135 -137 -138 141 -142 -143 -144 -150 0
x 1 -3 6 -9 10 -11 -13 16 18 22 -23 -24 -25 -26 28 29 -34 40 46 49 50 51 52 -58 -59 -62 -63 -66 67 69 70 -72 73 74 -75 77 78 79 -80 83 84 -85 86 -89 92 -93 99 101 -102 -104 -107 112 117 -118 -119 -120 121 122 125 126 -133 -134 137 -139 141 -143 145 146 -149 -150 0
x -1 2 3 -5 6 7 -8 9 11 18 -19 -23 -24 25 -28 -29 -30 36 38 39 40 41 42 43 -44 -46 48 50 -55 56 58 -60 -61 -64 -65 -66 67 -69 70 72 73 -76 77 -79 80 -81 82 83 -84 -90 91 92 -93 -96 97 -98 -99 104 -105 -106 -110 115 -117 119 120 122 123 -124 -125 126 128 -129 -133 -134 -136 -137 -139 141 -143 146 0
x 1 2 3 -4 -7 -8 -9 10 -12 -13 14 -16 18 19 22 24 25 -32 -35 38 39 -42 44 45 -46 -49 50 52 -53 -54 -55 58 59 -61 63 -66 -69 -70 72 73 -75 -76 -78 81 -84 -85 -87 -88 93 -96 98 -101 -103 -104 106 108 113 -115 -117 118 121 122 -124 126 -127 128 130 -131 -133 -134 -137 143 145 147 148 150 0
x 2 -5 -8 -11 18 -21 -25 -27 32 33 -36 -37 -40 -41 42 -46 48 49 53 54 59 62 64 66 67 -68 -70 -72 77 -78 -79 80 85 88 -89 -90 91 92 93 -94 96 98 100 -101 -104 -110 -111 112 -114 115 116 117 118 -121 -126 -127 -128 -129 -132 134 137 140 141 145 148 149 -150 0
x 2 6 7 -8 10 11 13 -14 -18 -23 -24 25 28 -29 -31 33 34 37 38 39 -41 -42 44 45 -46 48 53 -55 -59 60 62 64 -65 67 68 70 -72 -75 -81 82 85 86 -91 -92 95 -96 97 98 101 -102 104 -108 109 112 -113 124 125 129 130 131 -132 134 135 139 -141 -142 -143 146 147 148 0
